NAME : local_7
TYPE : ATSP
DIMENSION : 5
EDGE_WEIGHT_TYPE : EXPLICIT
EDGE_WEIGHT_FORMAT : FULL_MATRIX
EDGE_WEIGHT_SECTION
0 998 741 10000000 10000000 
0 0 377 10000000 10000000 
0 377 0 10000000 10000000 
0 10000000 10000000 0 156 
0 10000000 10000000 156 0 
EOF